dosen = {budi, joni, dono, rani, john};

matkul = {spk, algo, bio, web2, web};

hari = {jumat, selasa, kamis, rabu, senin};

dosen_matkul = array2d(1..5, 1..5, [1, 1, 0, 0, 0, 0, 0, 1, 1, 1, 1, 0, 1, 0, 1, 1,
    0, 0, 1, 0, 0, 0, 0, 1, 1]);

dosen_hari = array2d(1..5, 1..5, [1, 1, 1, 0, 0, 1, 0, 1, 0, 1, 1, 0, 0, 1, 0, 1,
    1, 1, 1, 1, 1, 0, 0, 1, 0]);

